unknown
(model
; cardinality of BoundSet is 1
(declare-sort BoundSet 0)
; rep: @uc_BoundSet_0
; cardinality of UnboundSet is 1
(declare-sort UnboundSet 0)
(declare-fun groundTerm_2 () UnboundSet)
(define-fun IsMelting ((BOUND_VARIABLE_389 BoundSet)) Bool true)
(define-fun ContributesToRisingSeaLevel ((BOUND_VARIABLE_389 BoundSet)) Bool true)
(define-fun WouldRiseBy ((BOUND_VARIABLE_401 BoundSet) (BOUND_VARIABLE_402 BoundSet)) Bool false)
(define-fun WouldFlood ((BOUND_VARIABLE_389 BoundSet)) Bool false)
)
sat
(model
; cardinality of BoundSet is 1
(declare-sort BoundSet 0)
; rep: @uc_BoundSet_0
; cardinality of UnboundSet is 1
(declare-sort UnboundSet 0)
(declare-fun groundTerm_4 () UnboundSet)
(define-fun IsMelting ((BOUND_VARIABLE_415 BoundSet)) Bool true)
(define-fun ContributesToRisingSeaLevel ((BOUND_VARIABLE_415 BoundSet)) Bool true)
(define-fun WouldRiseBy ((BOUND_VARIABLE_423 BoundSet) (BOUND_VARIABLE_424 BoundSet)) Bool false)
(define-fun WouldFlood ((BOUND_VARIABLE_415 BoundSet)) Bool false)
)
